\* NFL *\
Maximize
OBJ: 35.6 x0 + 11.3 x1 + 23.56 x10 + 38.5 x11 + 13.4 x114 + 17.5 x12
 + 19.28 x13 + 11.8 x136 + 10.24 x137 + 23.2 x14 + 23 x142 + 5.5 x143
 + 17.7 x145 + 3.3 x146 + 19.2 x147 + 8.9 x148 + 16.9 x149 + 24.7 x15
 + 9.1 x150 + 4.7 x151 + 14.3 x152 + 4.3 x153 + 6.5 x155 + 7.2 x156 + 8 x157
 + 5 x158 + 16.7 x159 + 25.8 x16 + 4.4 x160 + 7.6 x161 + 15.8 x162 + 13.1 x163
 + 10.2 x164 + 17.4 x165 + 13.4 x166 + 1.9 x167 + 15.6 x168 + 9.1 x169
 + 5.2 x17 + 13.4 x170 + 27.8 x171 + 6.9 x172 + 6.4 x173 + 11.1 x174 + 5 x175
 + 24.7 x176 + 14 x177 + 17.9 x178 + 14.6 x179 + 12.3 x18 + 11.8 x181
 + 13.1 x182 + 11.8 x183 + 12 x184 + 9.4 x185 + 3.8 x187 + 2.3 x188 + 3.5 x189
 + 15.2 x19 + 8 x190 + 1.6 x192 + 3.4 x193 + 2.8 x194 + 11 x195 + 2 x196
 + 9.1 x197 + 7.8 x198 + 6.4 x199 + 16.6 x2 + 13.92 x20 + 11 x200 + 9.9 x201
 + 5.6 x202 + 10.6 x203 + 11.9 x204 + 7.6 x205 + 1.8 x207 + 2.1 x208
 + 10.7 x209 + 12.8 x21 + 0.2 x210 + 9.1 x211 + 1.9 x212 + 3.5 x213
 + 11.8 x214 + 1.6 x216 + 17.5 x217 + 17.3 x218 + 6 x219 + 12.2 x22 + 0.6 x220
 + 4.4 x221 + 15 x222 + 8.3 x223 + 8.3 x224 + 15.6 x225 + 9.8 x226 + 10.7 x227
 + 6 x228 + 29.1 x23 + 15.7 x230 + 15.7 x231 + 8.1 x232 + 2.6 x233 + 0.4 x234
 + 8 x235 + 6 x236 + 3.4 x237 + 21 x238 + 6.4 x239 + 18.7 x24 + 5.6 x242
 + 5.8 x243 + 5.3 x244 + x246 + 2.8 x247 + 4.4 x248 + 20.9 x25 + 3.4 x251
 + 11 x252 + 14.5 x253 + 3.4 x255 + 3.1 x256 + x257 + 4.5 x258 + 2.1 x259
 + 25.36 x26 + 9.4 x260 + 5 x261 + 4.1 x262 - 0.1 x264 + 7.1 x265 + 0.7 x266
 + 4.2 x267 + 1.9 x268 + 6.2 x269 + 38.1 x27 + 10.5 x270 + 0.4 x271 + 1.7 x272
 + 2.7 x273 + 0.1 x275 + 13.1 x277 + 14.96 x28 + 2.1 x280 + 9.4 x283
 + 2.6 x284 + 0.3 x286 + 2.6 x288 + 13.9 x29 + 1.9 x290 + 1.1 x296 + 0.4 x299
 + 39 x3 + 3.1 x30 + 10.5 x301 + 0.4 x312 + 4.8 x314 + 5.3 x319 + 18.94 x32
 + 3 x320 + 0.2 x324 + 1.8 x325 + 1.6 x327 + 27.4 x33 + 7.9 x330 + 6.1 x335
 + 1.8 x337 + 4.3 x339 + 13.4 x34 + 2.9 x340 + 2.3 x344 + 6 x348 + 11.3 x35
 + 2.3 x350 + 2.1 x353 + 27.36 x36 + 0.9 x360 + 2.1 x361 + 29.9 x37 + 2.9 x371
 + 1.8 x372 + x376 + 19 x38 + 3.9 x380 + 1.6 x382 + 8.8 x383 - 0.2 x384
 + 24.2 x39 + 1.3 x391 + 1.5 x395 + 1.8 x397 + 16.4 x4 + 21.1 x40 + 2.4 x400
 + 1.7 x401 + 4.2 x402 + 0.1 x404 + 13.02 x41 + 4.4 x410 + 5 x411 + 8.5 x412
 + 4.6 x413 + 3.5 x414 + 10 x415 + 11.1 x416 + 5.5 x417 + 4 x418 - x419
 + 21.34 x42 + 5 x420 + 2.6 x421 + 6.9 x423 + 6.8 x424 + 3.2 x425 + 4.6 x426
 + 2 x427 - 3 x428 + 2.5 x429 + 12.9 x43 + 3 x430 + 7.9 x432 + x433 + 6 x435
 + 6.8 x436 + 2.1 x438 + 28.1 x44 + 3.1 x444 + 14.62 x45 + 13 x457 + 3.7 x458
 + 8.8 x46 + 1.6 x461 + 4 x463 + 5.5 x464 + 18.4 x47 + 1.5 x470 + 1.5 x472
 + 2 x476 + 1.2 x479 + 19.2 x48 + 7.4 x482 + 8.1 x484 + 3 x489 + 32.02 x49
 + 4 x490 + 2.4 x494 + 18.5 x496 + 1.8 x5 + 16 x508 + 5 x509 + 17.2 x51
 - 4 x510 + x511 + x512 + 4 x513 + 3 x514 + 10.7 x52 + 15.2 x53 + 26.54 x54
 + 17.64 x55 + 35.9 x56 + 8 x57 + 17.7 x58 + 35.42 x6 + 13 x60 + 18.74 x61
 + 9.9 x62 + 8.8 x63 + 16.06 x64 + 14.6 x65 + 9.1 x66 + 10.28 x67 + 35.2 x68
 + 13.7 x69 + 36.4 x7 + 23.7 x70 + 14.2 x71 + 12.84 x72 + 14.3 x73 + 8.8 x74
 + 15.14 x75 + 12.5 x77 + 8.8 x78 + 21 x79 + 22.16 x8 + 19.22 x80 + 6.4 x81
 + 11.5 x82 + 10.3 x83 + 1.8 x84 + 13.3 x85 + 23 x86 + 11.12 x87 + 23.3 x88
 + 4.2 x89 + 13.2 x9 + 20.2 x90 + 14.5 x95
Subject To
_C1: 9900 x0 + 9500 x1 + 7800 x10 + 5000 x100 + 5000 x101 + 5000 x102
 + 5000 x103 + 5000 x104 + 5000 x105 + 5000 x106 + 5000 x107 + 5000 x108
 + 5000 x109 + 7700 x11 + 5000 x110 + 5000 x111 + 5000 x112 + 5000 x113
 + 5000 x114 + 5000 x115 + 5000 x116 + 5000 x117 + 5000 x118 + 5000 x119
 + 7700 x12 + 5000 x120 + 5000 x121 + 5000 x122 + 5000 x123 + 5000 x124
 + 5000 x125 + 5000 x126 + 5000 x127 + 5000 x128 + 5000 x129 + 7600 x13
 + 5000 x130 + 5000 x131 + 5000 x132 + 5000 x133 + 5000 x134 + 5000 x135
 + 5000 x136 + 5000 x137 + 5000 x138 + 5000 x139 + 7600 x14 + 5000 x140
 + 5000 x141 + 4900 x142 + 4900 x143 + 4800 x144 + 4800 x145 + 4700 x146
 + 4700 x147 + 4700 x148 + 4700 x149 + 7600 x15 + 4600 x150 + 4600 x151
 + 4600 x152 + 4500 x153 + 4500 x154 + 4500 x155 + 4500 x156 + 4500 x157
 + 4500 x158 + 4500 x159 + 7500 x16 + 4400 x160 + 4400 x161 + 4400 x162
 + 4400 x163 + 4400 x164 + 4400 x165 + 4400 x166 + 4300 x167 + 4300 x168
 + 4300 x169 + 7500 x17 + 4300 x170 + 4300 x171 + 4300 x172 + 4300 x173
 + 4200 x174 + 4200 x175 + 4200 x176 + 4200 x177 + 4100 x178 + 4100 x179
 + 7500 x18 + 4100 x180 + 4100 x181 + 4000 x182 + 4000 x183 + 4000 x184
 + 4000 x185 + 4000 x186 + 4000 x187 + 4000 x188 + 3900 x189 + 7500 x19
 + 3900 x190 + 3900 x191 + 3900 x192 + 3900 x193 + 3900 x194 + 3800 x195
 + 3800 x196 + 3800 x197 + 3800 x198 + 3800 x199 + 9200 x2 + 7400 x20
 + 3800 x200 + 3800 x201 + 3800 x202 + 3700 x203 + 3700 x204 + 3700 x205
 + 3700 x206 + 3700 x207 + 3700 x208 + 3700 x209 + 7400 x21 + 3700 x210
 + 3700 x211 + 3700 x212 + 3600 x213 + 3600 x214 + 3600 x215 + 3600 x216
 + 3600 x217 + 3600 x218 + 3600 x219 + 7300 x22 + 3500 x220 + 3500 x221
 + 3500 x222 + 3500 x223 + 3500 x224 + 3500 x225 + 3500 x226 + 3500 x227
 + 3500 x228 + 3500 x229 + 7300 x23 + 3500 x230 + 3500 x231 + 3400 x232
 + 3400 x233 + 3400 x234 + 3400 x235 + 3400 x236 + 3400 x237 + 3400 x238
 + 3300 x239 + 7200 x24 + 3300 x240 + 3300 x241 + 3300 x242 + 3300 x243
 + 3300 x244 + 3300 x245 + 3300 x246 + 3300 x247 + 3300 x248 + 3300 x249
 + 7200 x25 + 3300 x250 + 3300 x251 + 3300 x252 + 3200 x253 + 3200 x254
 + 3200 x255 + 3200 x256 + 3200 x257 + 3200 x258 + 3200 x259 + 7200 x26
 + 3200 x260 + 3200 x261 + 3100 x262 + 3100 x263 + 3100 x264 + 3100 x265
 + 3100 x266 + 3100 x267 + 3100 x268 + 3100 x269 + 7100 x27 + 3100 x270
 + 3100 x271 + 3000 x272 + 3000 x273 + 3000 x274 + 3000 x275 + 3000 x276
 + 3000 x277 + 3000 x278 + 3000 x279 + 7000 x28 + 3000 x280 + 3000 x281
 + 3000 x282 + 3000 x283 + 3000 x284 + 3000 x285 + 3000 x286 + 3000 x287
 + 3000 x288 + 3000 x289 + 7000 x29 + 3000 x290 + 3000 x291 + 3000 x292
 + 3000 x293 + 3000 x294 + 3000 x295 + 3000 x296 + 3000 x297 + 3000 x298
 + 3000 x299 + 8900 x3 + 7000 x30 + 3000 x300 + 3000 x301 + 3000 x302
 + 3000 x303 + 3000 x304 + 3000 x305 + 3000 x306 + 3000 x307 + 3000 x308
 + 3000 x309 + 6900 x31 + 3000 x310 + 3000 x311 + 3000 x312 + 3000 x313
 + 3000 x314 + 3000 x315 + 3000 x316 + 3000 x317 + 3000 x318 + 3000 x319
 + 6900 x32 + 3000 x320 + 3000 x321 + 3000 x322 + 3000 x323 + 3000 x324
 + 3000 x325 + 3000 x326 + 3000 x327 + 3000 x328 + 3000 x329 + 6900 x33
 + 3000 x330 + 3000 x331 + 3000 x332 + 3000 x333 + 3000 x334 + 3000 x335
 + 3000 x336 + 3000 x337 + 3000 x338 + 3000 x339 + 6800 x34 + 3000 x340
 + 3000 x341 + 3000 x342 + 3000 x343 + 3000 x344 + 3000 x345 + 3000 x346
 + 3000 x347 + 3000 x348 + 3000 x349 + 6800 x35 + 3000 x350 + 3000 x351
 + 3000 x352 + 3000 x353 + 3000 x354 + 3000 x355 + 3000 x356 + 3000 x357
 + 3000 x358 + 3000 x359 + 6800 x36 + 3000 x360 + 3000 x361 + 3000 x362
 + 3000 x363 + 3000 x364 + 3000 x365 + 3000 x366 + 3000 x367 + 3000 x368
 + 3000 x369 + 6800 x37 + 3000 x370 + 3000 x371 + 3000 x372 + 3000 x373
 + 3000 x374 + 3000 x375 + 3000 x376 + 3000 x377 + 3000 x378 + 3000 x379
 + 6700 x38 + 3000 x380 + 3000 x381 + 3000 x382 + 3000 x383 + 3000 x384
 + 3000 x385 + 3000 x386 + 3000 x387 + 3000 x388 + 3000 x389 + 6600 x39
 + 3000 x390 + 3000 x391 + 3000 x392 + 3000 x393 + 3000 x394 + 3000 x395
 + 3000 x396 + 3000 x397 + 3000 x398 + 3000 x399 + 8700 x4 + 6500 x40
 + 3000 x400 + 3000 x401 + 3000 x402 + 3000 x403 + 3000 x404 + 3000 x405
 + 3000 x406 + 3000 x407 + 3000 x408 + 3000 x409 + 6500 x41 + 3000 x410
 + 2900 x411 + 2900 x412 + 2900 x413 + 2900 x414 + 2900 x415 + 2900 x416
 + 2900 x417 + 2900 x418 + 2800 x419 + 6400 x42 + 2800 x420 + 2800 x421
 + 2800 x422 + 2800 x423 + 2800 x424 + 2800 x425 + 2700 x426 + 2700 x427
 + 2700 x428 + 2600 x429 + 6400 x43 + 2600 x430 + 2600 x431 + 2600 x432
 + 2600 x433 + 2600 x434 + 2600 x435 + 2600 x436 + 2600 x437 + 2600 x438
 + 2500 x439 + 6400 x44 + 2500 x440 + 2500 x441 + 2500 x442 + 2500 x443
 + 2500 x444 + 2500 x445 + 2500 x446 + 2500 x447 + 2500 x448 + 2500 x449
 + 6400 x45 + 2500 x450 + 2500 x451 + 2500 x452 + 2500 x453 + 2500 x454
 + 2500 x455 + 2500 x456 + 2500 x457 + 2500 x458 + 2500 x459 + 6400 x46
 + 2500 x460 + 2500 x461 + 2500 x462 + 2500 x463 + 2500 x464 + 2500 x465
 + 2500 x466 + 2500 x467 + 2500 x468 + 2500 x469 + 6400 x47 + 2500 x470
 + 2500 x471 + 2500 x472 + 2500 x473 + 2500 x474 + 2500 x475 + 2500 x476
 + 2500 x477 + 2500 x478 + 2500 x479 + 6300 x48 + 2500 x480 + 2500 x481
 + 2500 x482 + 2500 x483 + 2500 x484 + 2500 x485 + 2500 x486 + 2500 x487
 + 2500 x488 + 2500 x489 + 6300 x49 + 2500 x490 + 2500 x491 + 2500 x492
 + 2500 x493 + 2500 x494 + 2500 x495 + 2500 x496 + 2500 x497 + 2500 x498
 + 2500 x499 + 8400 x5 + 6300 x50 + 2500 x500 + 2500 x501 + 2500 x502
 + 2500 x503 + 2500 x504 + 2500 x505 + 2500 x506 + 2500 x507 + 2400 x508
 + 2400 x509 + 6300 x51 + 2300 x510 + 2300 x511 + 2300 x512 + 2200 x513
 + 2200 x514 + 6200 x52 + 6200 x53 + 6200 x54 + 6100 x55 + 6100 x56 + 6100 x57
 + 6100 x58 + 6000 x59 + 8200 x6 + 6000 x60 + 6000 x61 + 6000 x62 + 6000 x63
 + 5900 x64 + 5900 x65 + 5900 x66 + 5800 x67 + 5800 x68 + 5800 x69 + 8000 x7
 + 5700 x70 + 5700 x71 + 5700 x72 + 5600 x73 + 5600 x74 + 5600 x75 + 5600 x76
 + 5500 x77 + 5500 x78 + 5500 x79 + 7900 x8 + 5500 x80 + 5400 x81 + 5400 x82
 + 5300 x83 + 5300 x84 + 5200 x85 + 5200 x86 + 5200 x87 + 5100 x88 + 5100 x89
 + 7800 x9 + 5100 x90 + 5000 x91 + 5000 x92 + 5000 x93 + 5000 x94 + 5000 x95
 + 5000 x96 + 5000 x97 + 5000 x98 + 5000 x99 <= 50000
_C10: x114 + x154 + x156 + x158 + x160 + x165 + x168 + x181 + x186 + x192
 + x218 + x225 + x232 + x259 + x270 + x283 + x31 + x34 + x370 + x401 + x410
 + x412 + x413 + x414 + x415 + x416 + x417 + x421 + x423 + x424 + x425 + x426
 + x429 + x430 + x431 + x432 + x434 + x435 + x436 + x437 + x438 + x439 + x440
 + x441 + x442 + x443 + x444 + x445 + x446 + x447 + x448 + x449 + x450 + x451
 + x452 + x453 + x454 + x455 + x456 + x458 + x459 + x460 + x461 + x462 + x463
 + x464 + x465 + x466 + x467 + x468 + x469 + x470 + x471 + x472 + x473 + x474
 + x475 + x477 + x478 + x479 + x480 + x481 + x482 + x483 + x484 + x485 + x486
 + x487 + x488 + x489 + x491 + x492 + x493 + x494 + x495 + x496 + x497 + x498
 + x499 + x500 + x501 + x502 + x503 + x504 + x505 + x506 + x507 + x73 <= 2
_C11: x190 + x200 + x219 + x228 + x235 + x238 + x246 + x252 + x257 + x261
 + x320 + x348 + x411 + x418 + x419 + x420 + x422 + x427 + x428 + x433 + x457
 + x476 + x490 + x508 + x509 + x510 + x511 + x512 + x513 + x514 <= 1
_C12: x190 + x200 + x219 + x228 + x235 + x238 + x246 + x252 + x257 + x261
 + x320 + x348 + x411 + x418 + x419 + x420 + x422 + x427 + x428 + x433 + x457
 + x476 + x490 + x508 + x509 + x510 + x511 + x512 + x513 + x514 >= 1
_C13: x11 + x171 + x176 + x238 + x27 + x3 + x496 + x56 + x68 <= 3
_C14: x171 + x218 + x37 + x44 + x49 + x508 + x56 + x68 + x7 <= 3
_C15: x225 + x230 + x27 + x457 + x56 + x6 + x68 + x7 + x88 <= 3
_C16: x142 + x147 + x27 + x3 + x49 + x496 + x508 + x7 + x88 <= 3
_C17: x11 + x142 + x225 + x27 + x33 + x44 + x508 + x68 + x86 <= 3
_C2: x0 + x1 + x10 + x100 + x101 + x102 + x103 + x104 + x105 + x106 + x107
 + x108 + x109 + x11 + x110 + x111 + x112 + x113 + x114 + x115 + x116 + x117
 + x118 + x119 + x12 + x120 + x121 + x122 + x123 + x124 + x125 + x126 + x127
 + x128 + x129 + x13 + x130 + x131 + x132 + x133 + x134 + x135 + x136 + x137
 + x138 + x139 + x14 + x140 + x141 + x142 + x143 + x144 + x145 + x146 + x147
 + x148 + x149 + x15 + x150 + x151 + x152 + x153 + x154 + x155 + x156 + x157
 + x158 + x159 + x16 + x160 + x161 + x162 + x163 + x164 + x165 + x166 + x167
 + x168 + x169 + x17 + x170 + x171 + x172 + x173 + x174 + x175 + x176 + x177
 + x178 + x179 + x18 + x180 + x181 + x182 + x183 + x184 + x185 + x186 + x187
 + x188 + x189 + x19 + x190 + x191 + x192 + x193 + x194 + x195 + x196 + x197
 + x198 + x199 + x2 + x20 + x200 + x201 + x202 + x203 + x204 + x205 + x206
 + x207 + x208 + x209 + x21 + x210 + x211 + x212 + x213 + x214 + x215 + x216
 + x217 + x218 + x219 + x22 + x220 + x221 + x222 + x223 + x224 + x225 + x226
 + x227 + x228 + x229 + x23 + x230 + x231 + x232 + x233 + x234 + x235 + x236
 + x237 + x238 + x239 + x24 + x240 + x241 + x242 + x243 + x244 + x245 + x246
 + x247 + x248 + x249 + x25 + x250 + x251 + x252 + x253 + x254 + x255 + x256
 + x257 + x258 + x259 + x26 + x260 + x261 + x262 + x263 + x264 + x265 + x266
 + x267 + x268 + x269 + x27 + x270 + x271 + x272 + x273 + x274 + x275 + x276
 + x277 + x278 + x279 + x28 + x280 + x281 + x282 + x283 + x284 + x285 + x286
 + x287 + x288 + x289 + x29 + x290 + x291 + x292 + x293 + x294 + x295 + x296
 + x297 + x298 + x299 + x3 + x30 + x300 + x301 + x302 + x303 + x304 + x305
 + x306 + x307 + x308 + x309 + x31 + x310 + x311 + x312 + x313 + x314 + x315
 + x316 + x317 + x318 + x319 + x32 + x320 + x321 + x322 + x323 + x324 + x325
 + x326 + x327 + x328 + x329 + x33 + x330 + x331 + x332 + x333 + x334 + x335
 + x336 + x337 + x338 + x339 + x34 + x340 + x341 + x342 + x343 + x344 + x345
 + x346 + x347 + x348 + x349 + x35 + x350 + x351 + x352 + x353 + x354 + x355
 + x356 + x357 + x358 + x359 + x36 + x360 + x361 + x362 + x363 + x364 + x365
 + x366 + x367 + x368 + x369 + x37 + x370 + x371 + x372 + x373 + x374 + x375
 + x376 + x377 + x378 + x379 + x38 + x380 + x381 + x382 + x383 + x384 + x385
 + x386 + x387 + x388 + x389 + x39 + x390 + x391 + x392 + x393 + x394 + x395
 + x396 + x397 + x398 + x399 + x4 + x40 + x400 + x401 + x402 + x403 + x404
 + x405 + x406 + x407 + x408 + x409 + x41 + x410 + x411 + x412 + x413 + x414
 + x415 + x416 + x417 + x418 + x419 + x42 + x420 + x421 + x422 + x423 + x424
 + x425 + x426 + x427 + x428 + x429 + x43 + x430 + x431 + x432 + x433 + x434
 + x435 + x436 + x437 + x438 + x439 + x44 + x440 + x441 + x442 + x443 + x444
 + x445 + x446 + x447 + x448 + x449 + x45 + x450 + x451 + x452 + x453 + x454
 + x455 + x456 + x457 + x458 + x459 + x46 + x460 + x461 + x462 + x463 + x464
 + x465 + x466 + x467 + x468 + x469 + x47 + x470 + x471 + x472 + x473 + x474
 + x475 + x476 + x477 + x478 + x479 + x48 + x480 + x481 + x482 + x483 + x484
 + x485 + x486 + x487 + x488 + x489 + x49 + x490 + x491 + x492 + x493 + x494
 + x495 + x496 + x497 + x498 + x499 + x5 + x50 + x500 + x501 + x502 + x503
 + x504 + x505 + x506 + x507 + x508 + x509 + x51 + x510 + x511 + x512 + x513
 + x514 + x52 + x53 + x54 + x55 + x56 + x57 + x58 + x59 + x6 + x60 + x61 + x62
 + x63 + x64 + x65 + x66 + x67 + x68 + x69 + x7 + x70 + x71 + x72 + x73 + x74
 + x75 + x76 + x77 + x78 + x79 + x8 + x80 + x81 + x82 + x83 + x84 + x85 + x86
 + x87 + x88 + x89 + x9 + x90 + x91 + x92 + x93 + x94 + x95 + x96 + x97 + x98
 + x99 = 9
_C3: x10 + x100 + x101 + x102 + x104 + x105 + x106 + x107 + x108 + x109 + x11
 + x110 + x111 + x112 + x113 + x115 + x116 + x117 + x118 + x119 + x120 + x121
 + x122 + x123 + x124 + x125 + x126 + x127 + x128 + x129 + x13 + x130 + x131
 + x132 + x133 + x134 + x135 + x137 + x138 + x139 + x140 + x141 + x16 + x20
 + x23 + x26 + x28 + x32 + x36 + x38 + x41 + x42 + x45 + x49 + x54 + x55 + x59
 + x6 + x61 + x64 + x67 + x72 + x75 + x76 + x8 + x80 + x83 + x87 + x89 + x91
 + x92 + x93 + x94 + x95 + x96 + x97 + x98 + x99 <= 1
_C4: x10 + x100 + x101 + x102 + x104 + x105 + x106 + x107 + x108 + x109 + x11
 + x110 + x111 + x112 + x113 + x115 + x116 + x117 + x118 + x119 + x120 + x121
 + x122 + x123 + x124 + x125 + x126 + x127 + x128 + x129 + x13 + x130 + x131
 + x132 + x133 + x134 + x135 + x137 + x138 + x139 + x140 + x141 + x16 + x20
 + x23 + x26 + x28 + x32 + x36 + x38 + x41 + x42 + x45 + x49 + x54 + x55 + x59
 + x6 + x61 + x64 + x67 + x72 + x75 + x76 + x8 + x80 + x83 + x87 + x89 + x91
 + x92 + x93 + x94 + x95 + x96 + x97 + x98 + x99 >= 1
_C5: x136 + x14 + x142 + x145 + x149 + x150 + x152 + x153 + x157 + x159 + x161
 + x162 + x163 + x169 + x17 + x171 + x175 + x180 + x184 + x185 + x188 + x191
 + x194 + x196 + x197 + x199 + x202 + x203 + x204 + x206 + x207 + x208 + x210
 + x212 + x213 + x217 + x22 + x220 + x223 + x234 + x237 + x24 + x243 + x248
 + x250 + x254 + x263 + x266 + x269 + x27 + x271 + x272 + x273 + x274 + x275
 + x276 + x284 + x285 + x286 + x287 + x293 + x294 + x295 + x299 + x30 + x300
 + x301 + x302 + x303 + x304 + x305 + x310 + x311 + x312 + x313 + x314 + x315
 + x321 + x322 + x323 + x324 + x325 + x331 + x332 + x333 + x334 + x335 + x339
 + x340 + x341 + x342 + x349 + x350 + x351 + x352 + x358 + x359 + x363 + x364
 + x365 + x366 + x37 + x371 + x372 + x373 + x380 + x381 + x382 + x383 + x384
 + x391 + x392 + x393 + x394 + x402 + x403 + x404 + x50 + x52 + x56 + x57
 + x60 + x63 + x65 + x69 + x70 + x71 + x74 + x78 + x81 + x86 + x88 >= 2
_C6: x136 + x14 + x142 + x145 + x149 + x150 + x152 + x153 + x157 + x159 + x161
 + x162 + x163 + x169 + x17 + x171 + x175 + x180 + x184 + x185 + x188 + x191
 + x194 + x196 + x197 + x199 + x202 + x203 + x204 + x206 + x207 + x208 + x210
 + x212 + x213 + x217 + x22 + x220 + x223 + x234 + x237 + x24 + x243 + x248
 + x250 + x254 + x263 + x266 + x269 + x27 + x271 + x272 + x273 + x274 + x275
 + x276 + x284 + x285 + x286 + x287 + x293 + x294 + x295 + x299 + x30 + x300
 + x301 + x302 + x303 + x304 + x305 + x310 + x311 + x312 + x313 + x314 + x315
 + x321 + x322 + x323 + x324 + x325 + x331 + x332 + x333 + x334 + x335 + x339
 + x340 + x341 + x342 + x349 + x350 + x351 + x352 + x358 + x359 + x363 + x364
 + x365 + x366 + x37 + x371 + x372 + x373 + x380 + x381 + x382 + x383 + x384
 + x391 + x392 + x393 + x394 + x402 + x403 + x404 + x50 + x52 + x56 + x57
 + x60 + x63 + x65 + x69 + x70 + x71 + x74 + x78 + x81 + x86 + x88 <= 3
_C7: x0 + x1 + x103 + x12 + x143 + x144 + x146 + x147 + x148 + x15 + x151
 + x155 + x164 + x166 + x167 + x170 + x172 + x173 + x174 + x176 + x177 + x178
 + x179 + x18 + x182 + x183 + x187 + x189 + x19 + x193 + x195 + x198 + x2
 + x201 + x205 + x209 + x21 + x211 + x214 + x215 + x216 + x221 + x222 + x224
 + x226 + x227 + x229 + x230 + x231 + x233 + x236 + x239 + x240 + x241 + x242
 + x244 + x245 + x247 + x249 + x25 + x251 + x253 + x255 + x256 + x258 + x260
 + x262 + x264 + x265 + x267 + x268 + x277 + x278 + x279 + x280 + x281 + x282
 + x288 + x289 + x29 + x290 + x291 + x292 + x296 + x297 + x298 + x3 + x306
 + x307 + x308 + x309 + x316 + x317 + x318 + x319 + x326 + x327 + x328 + x329
 + x33 + x330 + x336 + x337 + x338 + x343 + x344 + x345 + x346 + x347 + x35
 + x353 + x354 + x355 + x356 + x357 + x360 + x361 + x362 + x367 + x368 + x369
 + x374 + x375 + x376 + x377 + x378 + x379 + x385 + x386 + x387 + x388 + x389
 + x39 + x390 + x395 + x396 + x397 + x398 + x399 + x4 + x40 + x400 + x405
 + x406 + x407 + x408 + x409 + x43 + x44 + x46 + x47 + x48 + x5 + x51 + x53
 + x58 + x62 + x66 + x68 + x7 + x77 + x79 + x82 + x84 + x85 + x9 + x90 >= 3
_C8: x0 + x1 + x103 + x12 + x143 + x144 + x146 + x147 + x148 + x15 + x151
 + x155 + x164 + x166 + x167 + x170 + x172 + x173 + x174 + x176 + x177 + x178
 + x179 + x18 + x182 + x183 + x187 + x189 + x19 + x193 + x195 + x198 + x2
 + x201 + x205 + x209 + x21 + x211 + x214 + x215 + x216 + x221 + x222 + x224
 + x226 + x227 + x229 + x230 + x231 + x233 + x236 + x239 + x240 + x241 + x242
 + x244 + x245 + x247 + x249 + x25 + x251 + x253 + x255 + x256 + x258 + x260
 + x262 + x264 + x265 + x267 + x268 + x277 + x278 + x279 + x280 + x281 + x282
 + x288 + x289 + x29 + x290 + x291 + x292 + x296 + x297 + x298 + x3 + x306
 + x307 + x308 + x309 + x316 + x317 + x318 + x319 + x326 + x327 + x328 + x329
 + x33 + x330 + x336 + x337 + x338 + x343 + x344 + x345 + x346 + x347 + x35
 + x353 + x354 + x355 + x356 + x357 + x360 + x361 + x362 + x367 + x368 + x369
 + x374 + x375 + x376 + x377 + x378 + x379 + x385 + x386 + x387 + x388 + x389
 + x39 + x390 + x395 + x396 + x397 + x398 + x399 + x4 + x40 + x400 + x405
 + x406 + x407 + x408 + x409 + x43 + x44 + x46 + x47 + x48 + x5 + x51 + x53
 + x58 + x62 + x66 + x68 + x7 + x77 + x79 + x82 + x84 + x85 + x9 + x90 <= 4
_C9: x114 + x154 + x156 + x158 + x160 + x165 + x168 + x181 + x186 + x192
 + x218 + x225 + x232 + x259 + x270 + x283 + x31 + x34 + x370 + x401 + x410
 + x412 + x413 + x414 + x415 + x416 + x417 + x421 + x423 + x424 + x425 + x426
 + x429 + x430 + x431 + x432 + x434 + x435 + x436 + x437 + x438 + x439 + x440
 + x441 + x442 + x443 + x444 + x445 + x446 + x447 + x448 + x449 + x450 + x451
 + x452 + x453 + x454 + x455 + x456 + x458 + x459 + x460 + x461 + x462 + x463
 + x464 + x465 + x466 + x467 + x468 + x469 + x470 + x471 + x472 + x473 + x474
 + x475 + x477 + x478 + x479 + x480 + x481 + x482 + x483 + x484 + x485 + x486
 + x487 + x488 + x489 + x491 + x492 + x493 + x494 + x495 + x496 + x497 + x498
 + x499 + x500 + x501 + x502 + x503 + x504 + x505 + x506 + x507 + x73 >= 1
Binaries
x0
x1
x10
x100
x101
x102
x103
x104
x105
x106
x107
x108
x109
x11
x110
x111
x112
x113
x114
x115
x116
x117
x118
x119
x12
x120
x121
x122
x123
x124
x125
x126
x127
x128
x129
x13
x130
x131
x132
x133
x134
x135
x136
x137
x138
x139
x14
x140
x141
x142
x143
x144
x145
x146
x147
x148
x149
x15
x150
x151
x152
x153
x154
x155
x156
x157
x158
x159
x16
x160
x161
x162
x163
x164
x165
x166
x167
x168
x169
x17
x170
x171
x172
x173
x174
x175
x176
x177
x178
x179
x18
x180
x181
x182
x183
x184
x185
x186
x187
x188
x189
x19
x190
x191
x192
x193
x194
x195
x196
x197
x198
x199
x2
x20
x200
x201
x202
x203
x204
x205
x206
x207
x208
x209
x21
x210
x211
x212
x213
x214
x215
x216
x217
x218
x219
x22
x220
x221
x222
x223
x224
x225
x226
x227
x228
x229
x23
x230
x231
x232
x233
x234
x235
x236
x237
x238
x239
x24
x240
x241
x242
x243
x244
x245
x246
x247
x248
x249
x25
x250
x251
x252
x253
x254
x255
x256
x257
x258
x259
x26
x260
x261
x262
x263
x264
x265
x266
x267
x268
x269
x27
x270
x271
x272
x273
x274
x275
x276
x277
x278
x279
x28
x280
x281
x282
x283
x284
x285
x286
x287
x288
x289
x29
x290
x291
x292
x293
x294
x295
x296
x297
x298
x299
x3
x30
x300
x301
x302
x303
x304
x305
x306
x307
x308
x309
x31
x310
x311
x312
x313
x314
x315
x316
x317
x318
x319
x32
x320
x321
x322
x323
x324
x325
x326
x327
x328
x329
x33
x330
x331
x332
x333
x334
x335
x336
x337
x338
x339
x34
x340
x341
x342
x343
x344
x345
x346
x347
x348
x349
x35
x350
x351
x352
x353
x354
x355
x356
x357
x358
x359
x36
x360
x361
x362
x363
x364
x365
x366
x367
x368
x369
x37
x370
x371
x372
x373
x374
x375
x376
x377
x378
x379
x38
x380
x381
x382
x383
x384
x385
x386
x387
x388
x389
x39
x390
x391
x392
x393
x394
x395
x396
x397
x398
x399
x4
x40
x400
x401
x402
x403
x404
x405
x406
x407
x408
x409
x41
x410
x411
x412
x413
x414
x415
x416
x417
x418
x419
x42
x420
x421
x422
x423
x424
x425
x426
x427
x428
x429
x43
x430
x431
x432
x433
x434
x435
x436
x437
x438
x439
x44
x440
x441
x442
x443
x444
x445
x446
x447
x448
x449
x45
x450
x451
x452
x453
x454
x455
x456
x457
x458
x459
x46
x460
x461
x462
x463
x464
x465
x466
x467
x468
x469
x47
x470
x471
x472
x473
x474
x475
x476
x477
x478
x479
x48
x480
x481
x482
x483
x484
x485
x486
x487
x488
x489
x49
x490
x491
x492
x493
x494
x495
x496
x497
x498
x499
x5
x50
x500
x501
x502
x503
x504
x505
x506
x507
x508
x509
x51
x510
x511
x512
x513
x514
x52
x53
x54
x55
x56
x57
x58
x59
x6
x60
x61
x62
x63
x64
x65
x66
x67
x68
x69
x7
x70
x71
x72
x73
x74
x75
x76
x77
x78
x79
x8
x80
x81
x82
x83
x84
x85
x86
x87
x88
x89
x9
x90
x91
x92
x93
x94
x95
x96
x97
x98
x99
End
